p cnf 1314
-19 -411
-20 -414
-21 -417
-22 -420
-23 -423
-24 -426
-25 -429
-26 -432
-27 -435
-28 -438
-29 -441
-30 -444
-31 -447
-32 -450
-33 -453
-34 -456
-35 -459
-36 -462
-37 463
-38 464
-39 465
-40 466
-41 467
-42 468
-43 469
-44 470
-45 471
-46 472
-47 473
-48 -20
-48 -21
20 21 48
-49 -22
-49 -23
22 23 49
-50 -24
-50 -25
24 25 50
-51 -26
-51 -27
26 27 51
-52 -28
-52 -29
28 29 52
-53 -30
-53 -31
30 31 53
-54 -32
-54 -33
32 33 54
-55 -34
-55 -35
34 35 55
-56 -36
-56 -37
36 37 56
-57 -38
-57 -39
38 39 57
-58 -40
-58 -41
40 41 58
-59 -42
-59 -43
42 43 59
-60 -44
-60 -45
44 45 60
-61 -46
-61 -47
46 47 61
-62 48
-62 49
-48 -49 62
-63 50
-63 51
-50 -51 63
-64 52
-64 53
-52 -53 64
-65 54
-65 55
-54 -55 65
-66 56
-66 57
-56 -57 66
-67 58
-67 59
-58 -59 67
-68 60
-68 61
-60 -61 68
-69 62
-69 63
-62 -63 69
-70 64
-70 65
-64 -65 70
-71 66
-71 67
-66 -67 71
-72 69
-72 70
-69 -70 72
-73 68
-73 71
-68 -71 73
-74 72
-74 73
-72 -73 74
-75 -19
-75 20
19 -20 75
-76 19
-76 -20
-19 20 76
-77 -75
-77 -76
75 76 77
-78 19
-78 20
-19 -20 78
-79 -19
-79 -77
19 77 79
-80 19
-80 77
-19 -77 80
-81 -79
-81 -80
79 80 81
-82 19
-82 -77
-19 77 82
-83 -78
-83 -82
78 82 83
-84 -20
-84 21
20 -21 84
-85 20
-85 -21
-20 21 85
-86 -84
-86 -85
84 85 86
-87 20
-87 21
-20 -21 87
-88 83
-88 -86
-83 86 88
-89 -83
-89 86
83 -86 89
-90 -88
-90 -89
88 89 90
-91 -83
-91 -86
83 86 91
-92 -87
-92 -91
87 91 92
-93 -21
-93 22
21 -22 93
-94 21
-94 -22
-21 22 94
-95 -93
-95 -94
93 94 95
-96 21
-96 22
-21 -22 96
-97 92
-97 -95
-92 95 97
-98 -92
-98 95
92 -95 98
-99 -97
-99 -98
97 98 99
-100 -92
-100 -95
92 95 100
-101 -96
-101 -100
96 100 101
-102 -22
-102 23
22 -23 102
-103 22
-103 -23
-22 23 103
-104 -102
-104 -103
102 103 104
-105 22
-105 23
-22 -23 105
-106 101
-106 -104
-101 104 106
-107 -101
-107 104
101 -104 107
-108 -106
-108 -107
106 107 108
-109 -101
-109 -104
101 104 109
-110 -105
-110 -109
105 109 110
-111 -23
-111 24
23 -24 111
-112 23
-112 -24
-23 24 112
-113 -111
-113 -112
111 112 113
-114 23
-114 24
-23 -24 114
-115 110
-115 -113
-110 113 115
-116 -110
-116 113
110 -113 116
-117 -115
-117 -116
115 116 117
-118 -110
-118 -113
110 113 118
-119 -114
-119 -118
114 118 119
-120 -24
-120 25
24 -25 120
-121 24
-121 -25
-24 25 121
-122 -120
-122 -121
120 121 122
-123 24
-123 25
-24 -25 123
-124 119
-124 -122
-119 122 124
-125 -119
-125 122
119 -122 125
-126 -124
-126 -125
124 125 126
-127 -119
-127 -122
119 122 127
-128 -123
-128 -127
123 127 128
-129 -25
-129 26
25 -26 129
-130 25
-130 -26
-25 26 130
-131 -129
-131 -130
129 130 131
-132 25
-132 26
-25 -26 132
-133 128
-133 -131
-128 131 133
-134 -128
-134 131
128 -131 134
-135 -133
-135 -134
133 134 135
-136 -128
-136 -131
128 131 136
-137 -132
-137 -136
132 136 137
-138 -26
-138 27
26 -27 138
-139 26
-139 -27
-26 27 139
-140 -138
-140 -139
138 139 140
-141 26
-141 27
-26 -27 141
-142 137
-142 -140
-137 140 142
-143 -137
-143 140
137 -140 143
-144 -142
-144 -143
142 143 144
-145 -137
-145 -140
137 140 145
-146 -141
-146 -145
141 145 146
-147 -27
-147 28
27 -28 147
-148 27
-148 -28
-27 28 148
-149 -147
-149 -148
147 148 149
-150 27
-150 28
-27 -28 150
-151 146
-151 -149
-146 149 151
-152 -146
-152 149
146 -149 152
-153 -151
-153 -152
151 152 153
-154 -146
-154 -149
146 149 154
-155 -150
-155 -154
150 154 155
-156 -28
-156 29
28 -29 156
-157 28
-157 -29
-28 29 157
-158 -156
-158 -157
156 157 158
-159 28
-159 29
-28 -29 159
-160 155
-160 -158
-155 158 160
-161 -155
-161 158
155 -158 161
-162 -160
-162 -161
160 161 162
-163 -155
-163 -158
155 158 163
-164 -159
-164 -163
159 163 164
-165 -29
-165 30
29 -30 165
-166 29
-166 -30
-29 30 166
-167 -165
-167 -166
165 166 167
-168 29
-168 30
-29 -30 168
-169 164
-169 -167
-164 167 169
-170 -164
-170 167
164 -167 170
-171 -169
-171 -170
169 170 171
-172 -164
-172 -167
164 167 172
-173 -168
-173 -172
168 172 173
-174 -30
-174 31
30 -31 174
-175 30
-175 -31
-30 31 175
-176 -174
-176 -175
174 175 176
-177 30
-177 31
-30 -31 177
-178 173
-178 -176
-173 176 178
-179 -173
-179 176
173 -176 179
-180 -178
-180 -179
178 179 180
-181 -173
-181 -176
173 176 181
-182 -177
-182 -181
177 181 182
-183 -31
-183 32
31 -32 183
-184 31
-184 -32
-31 32 184
-185 -183
-185 -184
183 184 185
-186 31
-186 32
-31 -32 186
-187 182
-187 -185
-182 185 187
-188 -182
-188 185
182 -185 188
-189 -187
-189 -188
187 188 189
-190 -182
-190 -185
182 185 190
-191 -186
-191 -190
186 190 191
-192 -32
-192 33
32 -33 192
-193 32
-193 -33
-32 33 193
-194 -192
-194 -193
192 193 194
-195 32
-195 33
-32 -33 195
-196 191
-196 -194
-191 194 196
-197 -191
-197 194
191 -194 197
-198 -196
-198 -197
196 197 198
-199 -191
-199 -194
191 194 199
-200 -195
-200 -199
195 199 200
-201 -33
-201 34
33 -34 201
-202 33
-202 -34
-33 34 202
-203 -201
-203 -202
201 202 203
-204 33
-204 34
-33 -34 204
-205 200
-205 -203
-200 203 205
-206 -200
-206 203
200 -203 206
-207 -205
-207 -206
205 206 207
-208 -200
-208 -203
200 203 208
-209 -204
-209 -208
204 208 209
-210 -34
-210 35
34 -35 210
-211 34
-211 -35
-34 35 211
-212 -210
-212 -211
210 211 212
-213 34
-213 35
-34 -35 213
-214 209
-214 -212
-209 212 214
-215 -209
-215 212
209 -212 215
-216 -214
-216 -215
214 215 216
-217 -209
-217 -212
209 212 217
-218 -213
-218 -217
213 217 218
-219 -35
-219 36
35 -36 219
-220 35
-220 -36
-35 36 220
-221 -219
-221 -220
219 220 221
-222 35
-222 36
-35 -36 222
-223 218
-223 -221
-218 221 223
-224 -218
-224 221
218 -221 224
-225 -223
-225 -224
223 224 225
-226 -218
-226 -221
218 221 226
-227 -222
-227 -226
222 226 227
-228 -36
-228 37
36 -37 228
-229 36
-229 -37
-36 37 229
-230 -228
-230 -229
228 229 230
-231 36
-231 37
-36 -37 231
-232 227
-232 -230
-227 230 232
-233 -227
-233 230
227 -230 233
-234 -232
-234 -233
232 233 234
-235 -227
-235 -230
227 230 235
-236 -231
-236 -235
231 235 236
-237 -37
-237 38
37 -38 237
-238 37
-238 -38
-37 38 238
-239 -237
-239 -238
237 238 239
-240 37
-240 38
-37 -38 240
-241 236
-241 -239
-236 239 241
-242 -236
-242 239
236 -239 242
-243 -241
-243 -242
241 242 243
-244 -236
-244 -239
236 239 244
-245 -240
-245 -244
240 244 245
-246 -38
-246 39
38 -39 246
-247 38
-247 -39
-38 39 247
-248 -246
-248 -247
246 247 248
-249 38
-249 39
-38 -39 249
-250 245
-250 -248
-245 248 250
-251 -245
-251 248
245 -248 251
-252 -250
-252 -251
250 251 252
-253 -245
-253 -248
245 248 253
-254 -249
-254 -253
249 253 254
-255 -39
-255 40
39 -40 255
-256 39
-256 -40
-39 40 256
-257 -255
-257 -256
255 256 257
-258 39
-258 40
-39 -40 258
-259 254
-259 -257
-254 257 259
-260 -254
-260 257
254 -257 260
-261 -259
-261 -260
259 260 261
-262 -254
-262 -257
254 257 262
-263 -258
-263 -262
258 262 263
-264 -40
-264 41
40 -41 264
-265 40
-265 -41
-40 41 265
-266 -264
-266 -265
264 265 266
-267 40
-267 41
-40 -41 267
-268 263
-268 -266
-263 266 268
-269 -263
-269 266
263 -266 269
-270 -268
-270 -269
268 269 270
-271 -263
-271 -266
263 266 271
-272 -267
-272 -271
267 271 272
-273 -41
-273 42
41 -42 273
-274 41
-274 -42
-41 42 274
-275 -273
-275 -274
273 274 275
-276 41
-276 42
-41 -42 276
-277 272
-277 -275
-272 275 277
-278 -272
-278 275
272 -275 278
-279 -277
-279 -278
277 278 279
-280 -272
-280 -275
272 275 280
-281 -276
-281 -280
276 280 281
-282 -42
-282 43
42 -43 282
-283 42
-283 -43
-42 43 283
-284 -282
-284 -283
282 283 284
-285 42
-285 43
-42 -43 285
-286 281
-286 -284
-281 284 286
-287 -281
-287 284
281 -284 287
-288 -286
-288 -287
286 287 288
-289 -281
-289 -284
281 284 289
-290 -285
-290 -289
285 289 290
-291 -43
-291 44
43 -44 291
-292 43
-292 -44
-43 44 292
-293 -291
-293 -292
291 292 293
-294 43
-294 44
-43 -44 294
-295 290
-295 -293
-290 293 295
-296 -290
-296 293
290 -293 296
-297 -295
-297 -296
295 296 297
-298 -290
-298 -293
290 293 298
-299 -294
-299 -298
294 298 299
-300 -44
-300 45
44 -45 300
-301 44
-301 -45
-44 45 301
-302 -300
-302 -301
300 301 302
-303 44
-303 45
-44 -45 303
-304 299
-304 -302
-299 302 304
-305 -299
-305 302
299 -302 305
-306 -304
-306 -305
304 305 306
-307 -299
-307 -302
299 302 307
-308 -303
-308 -307
303 307 308
-309 -45
-309 46
45 -46 309
-310 45
-310 -46
-45 46 310
-311 -309
-311 -310
309 310 311
-312 45
-312 46
-45 -46 312
-313 308
-313 -311
-308 311 313
-314 -308
-314 311
308 -311 314
-315 -313
-315 -314
313 314 315
-316 -308
-316 -311
308 311 316
-317 -312
-317 -316
312 316 317
-318 -46
-318 47
46 -47 318
-319 46
-319 -47
-46 47 319
-320 -318
-320 -319
318 319 320
-321 46
-321 47
-46 -47 321
-322 317
-322 -320
-317 320 322
-323 -317
-323 320
317 -320 323
-324 -322
-324 -323
322 323 324
-325 -317
-325 -320
317 320 325
-326 -321
-326 -325
321 325 326
-327 19
-327 -81
-19 81 327
-328 -19
-328 21
19 -21 328
-329 -327
-329 -328
327 328 329
-330 19
-330 -90
-19 90 330
-331 -19
-331 22
19 -22 331
-332 -330
-332 -331
330 331 332
-333 19
-333 -99
-19 99 333
-334 -19
-334 23
19 -23 334
-335 -333
-335 -334
333 334 335
-336 19
-336 -108
-19 108 336
-337 -19
-337 24
19 -24 337
-338 -336
-338 -337
336 337 338
-339 19
-339 -117
-19 117 339
-340 -19
-340 25
19 -25 340
-341 -339
-341 -340
339 340 341
-342 19
-342 -126
-19 126 342
-343 -19
-343 26
19 -26 343
-344 -342
-344 -343
342 343 344
-345 19
-345 -135
-19 135 345
-346 -19
-346 27
19 -27 346
-347 -345
-347 -346
345 346 347
-348 19
-348 -144
-19 144 348
-349 -19
-349 28
19 -28 349
-350 -348
-350 -349
348 349 350
-351 19
-351 -153
-19 153 351
-352 -19
-352 29
19 -29 352
-353 -351
-353 -352
351 352 353
-354 19
-354 -162
-19 162 354
-355 -19
-355 30
19 -30 355
-356 -354
-356 -355
354 355 356
-357 19
-357 -171
-19 171 357
-358 -19
-358 31
19 -31 358
-359 -357
-359 -358
357 358 359
-360 19
-360 -180
-19 180 360
-361 -19
-361 32
19 -32 361
-362 -360
-362 -361
360 361 362
-363 19
-363 -189
-19 189 363
-364 -19
-364 33
19 -33 364
-365 -363
-365 -364
363 364 365
-366 19
-366 -198
-19 198 366
-367 -19
-367 34
19 -34 367
-368 -366
-368 -367
366 367 368
-369 19
-369 -207
-19 207 369
-370 -19
-370 35
19 -35 370
-371 -369
-371 -370
369 370 371
-372 19
-372 -216
-19 216 372
-373 -19
-373 36
19 -36 373
-374 -372
-374 -373
372 373 374
-375 19
-375 -225
-19 225 375
-376 -19
-376 37
19 -37 376
-377 -375
-377 -376
375 376 377
-378 19
-378 -234
-19 234 378
-379 -19
-379 38
19 -38 379
-380 -378
-380 -379
378 379 380
-381 19
-381 -243
-19 243 381
-382 -19
-382 39
19 -39 382
-383 -381
-383 -382
381 382 383
-384 19
-384 -252
-19 252 384
-385 -19
-385 40
19 -40 385
-386 -384
-386 -385
384 385 386
-387 19
-387 -261
-19 261 387
-388 -19
-388 41
19 -41 388
-389 -387
-389 -388
387 388 389
-390 19
-390 -270
-19 270 390
-391 -19
-391 42
19 -42 391
-392 -390
-392 -391
390 391 392
-393 19
-393 -279
-19 279 393
-394 -19
-394 43
19 -43 394
-395 -393
-395 -394
393 394 395
-396 19
-396 -288
-19 288 396
-397 -19
-397 44
19 -44 397
-398 -396
-398 -397
396 397 398
-399 19
-399 -297
-19 297 399
-400 -19
-400 45
19 -45 400
-401 -399
-401 -400
399 400 401
-402 19
-402 -306
-19 306 402
-403 -19
-403 46
19 -46 403
-404 -402
-404 -403
402 403 404
-405 19
-405 -315
-19 315 405
-406 -19
-406 47
19 -47 406
-407 -405
-407 -406
405 406 407
-408 19
-408 -324
-19 324 408
-409 1
-409 74
-1 -74 409
-410 -74
-410 75
74 -75 410
-411 -409
-411 -410
409 410 411
-412 2
-412 74
-2 -74 412
-413 -74
-413 -329
74 329 413
-414 -412
-414 -413
412 413 414
-415 3
-415 74
-3 -74 415
-416 -74
-416 -332
74 332 416
-417 -415
-417 -416
415 416 417
-418 4
-418 74
-4 -74 418
-419 -74
-419 -335
74 335 419
-420 -418
-420 -419
418 419 420
-421 5
-421 74
-5 -74 421
-422 -74
-422 -338
74 338 422
-423 -421
-423 -422
421 422 423
-424 6
-424 74
-6 -74 424
-425 -74
-425 -341
74 341 425
-426 -424
-426 -425
424 425 426
-427 7
-427 74
-7 -74 427
-428 -74
-428 -344
74 344 428
-429 -427
-429 -428
427 428 429
-430 8
-430 74
-8 -74 430
-431 -74
-431 -347
74 347 431
-432 -430
-432 -431
430 431 432
-433 9
-433 74
-9 -74 433
-434 -74
-434 -350
74 350 434
-435 -433
-435 -434
433 434 435
-436 10
-436 74
-10 -74 436
-437 -74
-437 -353
74 353 437
-438 -436
-438 -437
436 437 438
-439 11
-439 74
-11 -74 439
-440 -74
-440 -356
74 356 440
-441 -439
-441 -440
439 440 441
-442 12
-442 74
-12 -74 442
-443 -74
-443 -359
74 359 443
-444 -442
-444 -443
442 443 444
-445 13
-445 74
-13 -74 445
-446 -74
-446 -362
74 362 446
-447 -445
-447 -446
445 446 447
-448 14
-448 74
-14 -74 448
-449 -74
-449 -365
74 365 449
-450 -448
-450 -449
448 449 450
-451 15
-451 74
-15 -74 451
-452 -74
-452 -368
74 368 452
-453 -451
-453 -452
451 452 453
-454 16
-454 74
-16 -74 454
-455 -74
-455 -371
74 371 455
-456 -454
-456 -455
454 455 456
-457 17
-457 74
-17 -74 457
-458 -74
-458 -374
74 374 458
-459 -457
-459 -458
457 458 459
-460 18
-460 74
-18 -74 460
-461 -74
-461 -377
74 377 461
-462 -460
-462 -461
460 461 462
-463 -74
-463 -380
74 380 463
-464 -74
-464 -383
74 383 464
-465 -74
-465 -386
74 386 465
-466 -74
-466 -389
74 389 466
-467 -74
-467 -392
74 392 467
-468 -74
-468 -395
74 395 468
-469 -74
-469 -398
74 398 469
-470 -74
-470 -401
74 401 470
-471 -74
-471 -404
74 404 471
-472 -74
-472 -407
74 407 472
-473 -74
-473 408
74 -408 473
-474 -47
-474 326
47 -326 474
-475 19
-475 -474
-19 474 475
475
